36 35 5
2 13
2 50
2 50
2 50
3 10
3 10
6 22
7 24
1 1000
5 18
2 10
2 25
3 36
4 70
4 70
32 10
72 25
13 36
84 70
884 70
889 300
2 2
2 2
2 2
2 2
2 2
5 5
4 70
4 70
5 5
10 10
2 13
3 10
5 18
6 22
7 24
